<instance format="XCSP3" type="CSP">
  <variables>
    <array id="x" note="--- Variables ---" size="[10]">
      <domain for="x[0..1] x[3] x[5..9]"> 5 6 7 </domain>
      <domain for="x[2]"> 6 </domain>
      <domain for="x[4]"> 6 7 </domain>
    </array>
    <array id="aux_gb" note="aux_gb[i] is the ith auxiliary variable having been automatically introduced" size="[20]">
      <domain for="aux_gb[0..3] aux_gb[18..19]"> 0..2 </domain>
      <domain for="aux_gb[4..5] aux_gb[12..15]"> 0..4 </domain>
      <domain for="aux_gb[6..7] aux_gb[10..11] aux_gb[16..17]"> 0..3 </domain>
      <domain for="aux_gb[8] aux_gb[9]"> 0..5 </domain>
    </array>
  </variables>
  <constraints>
    <sum>
      <list> x[] </list>
      <condition> (eq,60) </condition>
    </sum>
    <extension>
      <list> x[0..2] </list>
      <supports> (5,5,6)(5,5,7)(5,6,5)(5,6,6)(5,6,7)(5,7,5)(5,7,6)(5,7,7)(6,5,5)(6,5,6)(6,5,7)(6,6,5)(6,6,6)(6,6,7)(6,7,5)(6,7,6)(6,7,7)(7,5,5)(7,5,6)(7,5,7)(7,6,5)(7,6,6)(7,7,5)(7,7,7) </supports>
    </extension>
    <extension>
      <list> x[1] x[0] x[2] </list>
      <supports> (5,5,6)(5,5,7)(5,6,5)(5,6,6)(5,6,7)(5,7,5)(5,7,6)(5,7,7)(6,5,5)(6,5,6)(6,5,7)(6,6,5)(6,6,6)(6,6,7)(6,7,5)(6,7,6)(6,7,7)(7,5,5)(7,5,6)(7,5,7)(7,6,5)(7,6,6)(7,7,5)(7,7,7) </supports>
    </extension>
    <extension>
      <list> x[3] x[2] x[4..5] </list>
      <supports> (5,5,5,5)(5,5,6,6)(5,5,6,7)(5,5,7,5)(5,5,7,6)(5,5,7,7)(5,6,5,7)(5,6,6,5)(5,6,6,6)(5,6,6,7)(5,6,7,5)(5,6,7,6)(5,6,7,7)(5,7,5,6)(5,7,5,7)(5,7,6,5)(5,7,6,6)(5,7,6,7)(5,7,7,5)(5,7,7,6)(6,5,5,6)(6,5,5,7)(6,5,6,5)(6,5,6,6)(6,5,6,7)(6,5,7,5)(6,5,7,6)(6,5,7,7)(6,6,5,5)(6,6,5,6)(6,6,5,7)(6,6,6,5)(6,6,6,6)(6,6,6,7)(6,6,7,5)(6,6,7,6)(6,6,7,7)(6,7,5,5)(6,7,5,6)(6,7,5,7)(6,7,6,5)(6,7,6,6)(6,7,7,5)(6,7,7,6)(6,7,7,7)(7,5,5,5)(7,5,5,6)(7,5,5,7)(7,5,6,5)(7,5,6,6)(7,5,7,5)(7,5,7,6)(7,5,7,7)(7,6,5,5)(7,6,5,6)(7,6,5,7)(7,6,6,5)(7,6,6,6)(7,6,7,5)(7,6,7,7)(7,7,5,5)(7,7,5,6)(7,7,5,7)(7,7,7,5)(7,7,7,6)(7,7,7,7) </supports>
    </extension>
    <extension>
      <list> x[4] x[2..3] x[5..7] </list>
      <supports> (6,5,5,5,7,7)(6,5,5,6,7,7)(6,5,5,7,5,6)(6,5,5,7,5,7)(6,5,5,7,6,5)(6,5,5,7,6,6)(6,5,5,7,6,7)(6,5,5,7,7,5)(6,5,5,7,7,6)(6,5,5,7,7,7)(6,5,6,5,6,7)(6,5,6,5,7,5)(6,5,6,5,7,6)(6,5,6,5,7,7)(6,5,6,6,5,6)(6,5,6,6,5,7)(6,5,6,6,6,5)(6,5,6,6,6,6)(6,5,6,6,6,7)(6,5,6,6,7,5)(6,5,6,6,7,6)(6,5,6,6,7,7)(6,5,6,7,5,5)(6,5,6,7,5,6)(6,5,6,7,5,7)(6,5,6,7,6,5)(6,5,6,7,6,6)(6,5,6,7,7,5)(6,5,6,7,7,6)(6,5,6,7,7,7)(6,5,7,5,5,7)(6,5,7,5,6,5)(6,5,7,5,6,6)(6,5,7,5,6,7)(6,5,7,5,7,5)(6,5,7,5,7,6)(6,5,7,5,7,7)(6,5,7,6,5,6)(6,5,7,6,5,7)(6,5,7,6,6,5)(6,5,7,6,6,6)(6,5,7,6,7,5)(6,5,7,6,7,7)(6,5,7,7,5,5)(6,5,7,7,5,6)(6,5,7,7,5,7)(6,5,7,7,6,5)(6,5,7,7,6,6)(6,5,7,7,6,7)(6,5,7,7,7,5)(6,5,7,7,7,6)(6,5,7,7,7,7)(6,6,5,5,7,7)(6,6,5,6,5,7)(6,6,5,6,6,5)(6,6,5,6,6,6)(6,6,5,6,6,7)(6,6,5,6,7,5)(6,6,5,6,7,6)(6,6,5,6,7,7)(6,6,5,7,5,5)(6,6,5,7,5,6)(6,6,5,7,5,7)(6,6,5,7,6,5)(6,6,5,7,6,6)(6,6,5,7,7,5)(6,6,5,7,7,6)(6,6,5,7,7,7)(6,6,6,5,6,6)(6,6,6,5,6,7)(6,6,6,5,7,5)(6,6,6,5,7,6)(6,6,6,5,7,7)(6,6,6,6,5,6)(6,6,6,6,5,7)(6,6,6,6,6,5)(6,6,6,6,6,6)(6,6,6,6,7,5)(6,6,6,6,7,7)(6,6,6,7,5,5)(6,6,6,7,5,6)(6,6,6,7,5,7)(6,6,6,7,6,5)(6,6,6,7,7,5)(6,6,6,7,7,6)(6,6,6,7,7,7)(6,6,7,5,5,7)(6,6,7,5,6,5)(6,6,7,5,6,6)(6,6,7,5,7,5)(6,6,7,5,7,6)(6,6,7,5,7,7)(6,6,7,6,5,6)(6,6,7,6,6,5)(6,6,7,6,7,7)(6,6,7,7,5,5)(6,6,7,7,5,6)(6,6,7,7,5,7)(6,6,7,7,6,5)(6,6,7,7,6,6)(6,6,7,7,6,7)(6,6,7,7,7,5)(6,6,7,7,7,6)(6,6,7,7,7,7)(6,7,5,5,7,5)(6,7,5,5,7,6)(6,7,5,5,7,7)(6,7,5,6,5,6)(6,7,5,6,5,7)(6,7,5,6,6,5)(6,7,5,6,6,6)(6,7,5,6,7,5)(6,7,5,6,7,7)(6,7,5,7,5,5)(6,7,5,7,5,6)(6,7,5,7,5,7)(6,7,5,7,6,5)(6,7,5,7,6,6)(6,7,5,7,7,5)(6,7,5,7,7,6)(6,7,5,7,7,7)(6,7,6,5,6,5)(6,7,6,5,6,6)(6,7,6,5,7,5)(6,7,6,5,7,7)(6,7,6,6,5,6)(6,7,6,6,6,5)(6,7,6,6,7,7)(6,7,6,7,5,5)(6,7,6,7,7,5)(6,7,6,7,7,6)(6,7,6,7,7,7)(6,7,7,5,5,5)(6,7,7,5,5,6)(6,7,7,5,5,7)(6,7,7,5,6,5)(6,7,7,5,6,6)(6,7,7,5,6,7)(6,7,7,5,7,5)(6,7,7,5,7,6)(6,7,7,5,7,7)(6,7,7,6,5,5)(6,7,7,6,5,6)(6,7,7,6,5,7)(6,7,7,6,6,5)(6,7,7,6,6,6)(6,7,7,6,6,7)(6,7,7,6,7,5)(6,7,7,6,7,6)(6,7,7,6,7,7)(6,7,7,7,5,5)(6,7,7,7,5,6)(6,7,7,7,5,7)(6,7,7,7,6,5)(6,7,7,7,6,6)(6,7,7,7,6,7)(6,7,7,7,7,5)(6,7,7,7,7,6)(7,5,5,5,7,5)(7,5,5,5,7,6)(7,5,5,5,7,7)(7,5,5,6,5,6)(7,5,5,6,5,7)(7,5,5,6,6,5)(7,5,5,6,6,6)(7,5,5,6,7,5)(7,5,5,6,7,7)(7,5,5,7,5,5)(7,5,5,7,5,6)(7,5,5,7,5,7)(7,5,5,7,6,5)(7,5,5,7,6,6)(7,5,5,7,7,5)(7,5,5,7,7,6)(7,5,5,7,7,7)(7,5,6,5,5,6)(7,5,6,5,5,7)(7,5,6,5,6,5)(7,5,6,5,6,6)(7,5,6,5,6,7)(7,5,6,5,7,5)(7,5,6,5,7,6)(7,5,6,5,7,7)(7,5,6,6,5,5)(7,5,6,6,5,6)(7,5,6,6,5,7)(7,5,6,6,6,5)(7,5,6,6,6,6)(7,5,6,6,7,7)(7,5,6,7,5,5)(7,5,6,7,5,6)(7,5,6,7,7,5)(7,5,6,7,7,6)(7,5,6,7,7,7)(7,5,7,5,5,5)(7,5,7,5,5,6)(7,5,7,5,5,7)(7,5,7,5,6,5)(7,5,7,5,6,6)(7,5,7,5,7,5)(7,5,7,5,7,7)(7,5,7,6,5,5)(7,5,7,6,5,6)(7,5,7,6,5,7)(7,5,7,6,7,7)(7,5,7,7,5,5)(7,5,7,7,5,6)(7,5,7,7,5,7)(7,5,7,7,6,5)(7,5,7,7,6,6)(7,5,7,7,6,7)(7,5,7,7,7,5)(7,5,7,7,7,6)(7,5,7,7,7,7)(7,6,5,5,6,5)(7,6,5,5,6,6)(7,6,5,5,7,5)(7,6,5,5,7,6)(7,6,5,5,7,7)(7,6,5,6,5,5)(7,6,5,6,5,6)(7,6,5,6,5,7)(7,6,5,6,6,5)(7,6,5,6,6,6)(7,6,5,6,7,5)(7,6,5,6,7,7)(7,6,5,7,5,5)(7,6,5,7,5,6)(7,6,5,7,5,7)(7,6,5,7,6,5)(7,6,5,7,7,5)(7,6,5,7,7,6)(7,6,5,7,7,7)(7,6,6,5,5,6)(7,6,6,5,5,7)(7,6,6,5,6,5)(7,6,6,5,6,6)(7,6,6,5,7,5)(7,6,6,5,7,7)(7,6,6,6,5,5)(7,6,6,6,5,6)(7,6,6,6,5,7)(7,6,6,6,6,5)(7,6,6,6,7,7)(7,6,6,7,5,5)(7,6,6,7,7,5)(7,6,6,7,7,6)(7,6,6,7,7,7)(7,6,7,5,5,5)(7,6,7,5,5,6)(7,6,7,5,5,7)(7,6,7,5,6,5)(7,6,7,5,7,7)(7,6,7,6,7,7)(7,6,7,7,5,5)(7,6,7,7,5,6)(7,6,7,7,5,7)(7,6,7,7,6,5)(7,6,7,7,6,6)(7,6,7,7,6,7)(7,6,7,7,7,5)(7,6,7,7,7,6)(7,6,7,7,7,7)(7,7,5,5,5,7)(7,7,5,5,6,5)(7,7,5,5,6,6)(7,7,5,5,7,5)(7,7,5,5,7,6)(7,7,5,5,7,7)(7,7,5,6,5,5)(7,7,5,6,5,6)(7,7,5,6,5,7)(7,7,5,6,6,5)(7,7,5,6,6,6)(7,7,5,6,7,5)(7,7,5,6,7,7)(7,7,5,7,5,5)(7,7,5,7,5,6)(7,7,5,7,7,5)(7,7,5,7,7,6)(7,7,5,7,7,7)(7,7,6,5,6,5)(7,7,6,5,7,7)(7,7,6,6,7,7)(7,7,6,7,7,5)(7,7,6,7,7,6)(7,7,6,7,7,7)(7,7,7,5,5,5)(7,7,7,5,5,6)(7,7,7,5,5,7)(7,7,7,5,6,5)(7,7,7,5,6,6)(7,7,7,5,6,7)(7,7,7,5,7,5)(7,7,7,5,7,6)(7,7,7,5,7,7)(7,7,7,6,5,5)(7,7,7,6,5,6)(7,7,7,6,5,7)(7,7,7,6,6,5)(7,7,7,6,6,6)(7,7,7,6,6,7)(7,7,7,6,7,5)(7,7,7,6,7,6)(7,7,7,6,7,7)(7,7,7,7,5,5)(7,7,7,7,5,6)(7,7,7,7,5,7)(7,7,7,7,6,5)(7,7,7,7,6,6)(7,7,7,7,6,7)(7,7,7,7,7,5)(7,7,7,7,7,6)(7,7,7,7,7,7) </supports>
    </extension>
    <extension>
      <list> x[5] x[3..4] x[6] </list>
      <supports> (5,5,5,5)(5,5,6,6)(5,5,6,7)(5,5,7,5)(5,5,7,6)(5,5,7,7)(5,6,5,7)(5,6,6,5)(5,6,6,6)(5,6,6,7)(5,6,7,5)(5,6,7,6)(5,6,7,7)(5,7,5,6)(5,7,5,7)(5,7,6,5)(5,7,6,6)(5,7,6,7)(5,7,7,5)(5,7,7,6)(6,5,5,6)(6,5,5,7)(6,5,6,5)(6,5,6,6)(6,5,6,7)(6,5,7,5)(6,5,7,6)(6,5,7,7)(6,6,5,5)(6,6,5,6)(6,6,5,7)(6,6,6,5)(6,6,6,6)(6,6,6,7)(6,6,7,5)(6,6,7,6)(6,6,7,7)(6,7,5,5)(6,7,5,6)(6,7,5,7)(6,7,6,5)(6,7,6,6)(6,7,7,5)(6,7,7,6)(6,7,7,7)(7,5,5,5)(7,5,5,6)(7,5,5,7)(7,5,6,5)(7,5,6,6)(7,5,7,5)(7,5,7,6)(7,5,7,7)(7,6,5,5)(7,6,5,6)(7,6,5,7)(7,6,6,5)(7,6,6,6)(7,6,7,5)(7,6,7,7)(7,7,5,5)(7,7,5,6)(7,7,5,7)(7,7,7,5)(7,7,7,6)(7,7,7,7) </supports>
    </extension>
    <extension>
      <list> x[6] x[4..5] x[7..8] </list>
      <supports> (5,5,5,5,5)(5,5,5,5,6)(5,5,5,5,7)(5,5,6,5,5)(5,5,6,5,6)(5,5,6,7,6)(5,5,6,7,7)(5,5,7,5,5)(5,5,7,6,7)(5,5,7,7,6)(5,5,7,7,7)(5,6,5,7,6)(5,6,5,7,7)(5,6,6,6,6)(5,6,6,6,7)(5,6,6,7,5)(5,6,6,7,6)(5,6,6,7,7)(5,6,7,5,7)(5,6,7,6,6)(5,6,7,6,7)(5,6,7,7,5)(5,6,7,7,6)(5,6,7,7,7)(5,7,5,6,6)(5,7,5,6,7)(5,7,5,7,5)(5,7,5,7,6)(5,7,5,7,7)(5,7,6,5,6)(5,7,6,5,7)(5,7,6,6,5)(5,7,6,6,6)(5,7,6,6,7)(5,7,6,7,5)(5,7,6,7,6)(5,7,7,5,6)(5,7,7,5,7)(5,7,7,6,5)(5,7,7,6,6)(5,7,7,6,7)(5,7,7,7,5)(6,5,5,6,7)(6,5,5,7,5)(6,5,5,7,6)(6,5,5,7,7)(6,5,6,6,5)(6,5,6,6,6)(6,5,6,6,7)(6,5,6,7,5)(6,5,6,7,6)(6,5,6,7,7)(6,5,7,5,7)(6,5,7,6,5)(6,5,7,6,6)(6,5,7,6,7)(6,5,7,7,5)(6,5,7,7,6)(6,5,7,7,7)(6,6,5,5,6)(6,6,5,5,7)(6,6,5,6,5)(6,6,5,6,6)(6,6,5,6,7)(6,6,5,7,5)(6,6,5,7,6)(6,6,5,7,7)(6,6,6,5,6)(6,6,6,5,7)(6,6,6,6,5)(6,6,6,6,6)(6,6,6,6,7)(6,6,6,7,5)(6,6,6,7,6)(6,6,6,7,7)(6,6,7,5,5)(6,6,7,5,6)(6,6,7,5,7)(6,6,7,6,5)(6,6,7,6,6)(6,6,7,6,7)(6,6,7,7,7)(6,7,5,5,5)(6,7,5,5,6)(6,7,5,5,7)(6,7,5,6,5)(6,7,5,6,6)(6,7,5,7,5)(6,7,5,7,6)(6,7,5,7,7)(6,7,6,5,5)(6,7,6,5,6)(6,7,6,5,7)(6,7,6,6,5)(6,7,6,6,6)(6,7,6,7,5)(6,7,6,7,6)(6,7,6,7,7)(6,7,7,5,5)(6,7,7,5,6)(6,7,7,5,7)(6,7,7,6,5)(6,7,7,6,6)(6,7,7,6,7)(6,7,7,7,5)(6,7,7,7,6)(6,7,7,7,7)(7,5,5,5,7)(7,5,5,6,5)(7,5,5,6,6)(7,5,5,7,5)(7,5,5,7,6)(7,5,5,7,7)(7,5,6,5,6)(7,5,6,5,7)(7,5,6,6,5)(7,5,6,6,6)(7,5,6,7,5)(7,5,6,7,7)(7,5,7,5,5)(7,5,7,5,6)(7,5,7,5,7)(7,5,7,6,5)(7,5,7,6,6)(7,5,7,7,5)(7,5,7,7,7)(7,6,5,5,5)(7,6,5,5,6)(7,6,5,5,7)(7,6,5,6,5)(7,6,5,6,6)(7,6,5,7,5)(7,6,5,7,7)(7,6,6,5,5)(7,6,6,5,6)(7,6,6,5,7)(7,6,6,6,5)(7,6,6,7,7)(7,6,7,7,7)(7,7,5,5,5)(7,7,5,5,6)(7,7,5,5,7)(7,7,5,6,5)(7,7,5,7,5)(7,7,5,7,6)(7,7,5,7,7)(7,7,6,5,5)(7,7,6,7,5)(7,7,6,7,6)(7,7,6,7,7)(7,7,7,5,5)(7,7,7,5,6)(7,7,7,5,7)(7,7,7,6,5)(7,7,7,6,6)(7,7,7,6,7)(7,7,7,7,5)(7,7,7,7,6)(7,7,7,7,7) </supports>
    </extension>
    <extension>
      <list> x[7] x[4] x[6] x[8..9] </list>
      <supports> (5,5,5,5,5)(5,5,5,5,6)(5,5,5,5,7)(5,5,6,7,6)(5,5,6,7,7)(5,5,7,6,6)(5,5,7,6,7)(5,5,7,7,5)(5,5,7,7,6)(5,5,7,7,7)(5,6,5,5,5)(5,6,5,5,6)(5,6,5,7,6)(5,6,5,7,7)(5,6,6,6,6)(5,6,6,6,7)(5,6,6,7,5)(5,6,6,7,6)(5,6,6,7,7)(5,6,7,5,6)(5,6,7,5,7)(5,6,7,6,5)(5,6,7,6,6)(5,6,7,6,7)(5,6,7,7,5)(5,6,7,7,6)(5,7,5,5,5)(5,7,5,6,7)(5,7,5,7,6)(5,7,5,7,7)(5,7,6,5,7)(5,7,6,6,6)(5,7,6,6,7)(5,7,6,7,5)(5,7,6,7,6)(5,7,6,7,7)(5,7,7,5,6)(5,7,7,5,7)(5,7,7,6,5)(5,7,7,6,6)(5,7,7,6,7)(5,7,7,7,5)(6,5,5,6,7)(6,5,5,7,5)(6,5,5,7,6)(6,5,5,7,7)(6,5,6,5,6)(6,5,6,5,7)(6,5,6,6,5)(6,5,6,6,6)(6,5,6,6,7)(6,5,6,7,5)(6,5,6,7,6)(6,5,6,7,7)(6,5,7,5,5)(6,5,7,5,6)(6,5,7,5,7)(6,5,7,6,5)(6,5,7,6,6)(6,5,7,7,5)(6,5,7,7,6)(6,5,7,7,7)(6,6,5,6,5)(6,6,5,6,6)(6,6,5,6,7)(6,6,5,7,5)(6,6,5,7,6)(6,6,5,7,7)(6,6,6,5,6)(6,6,6,5,7)(6,6,6,6,5)(6,6,6,6,6)(6,6,6,6,7)(6,6,6,7,5)(6,6,6,7,6)(6,6,6,7,7)(6,6,7,5,5)(6,6,7,5,6)(6,6,7,5,7)(6,6,7,6,5)(6,6,7,6,6)(6,6,7,7,5)(6,6,7,7,6)(6,6,7,7,7)(6,7,5,5,7)(6,7,5,6,5)(6,7,5,6,6)(6,7,5,6,7)(6,7,5,7,5)(6,7,5,7,6)(6,7,5,7,7)(6,7,6,5,5)(6,7,6,5,6)(6,7,6,5,7)(6,7,6,6,5)(6,7,6,6,6)(6,7,6,6,7)(6,7,6,7,7)(6,7,7,5,5)(6,7,7,5,6)(6,7,7,5,7)(6,7,7,6,5)(6,7,7,6,6)(6,7,7,6,7)(6,7,7,7,5)(6,7,7,7,6)(6,7,7,7,7)(7,5,5,5,7)(7,5,5,6,5)(7,5,5,6,6)(7,5,5,7,5)(7,5,5,7,6)(7,5,5,7,7)(7,5,6,5,5)(7,5,6,5,6)(7,5,6,5,7)(7,5,6,6,5)(7,5,6,6,6)(7,5,6,7,5)(7,5,6,7,7)(7,5,7,5,5)(7,5,7,5,6)(7,5,7,5,7)(7,5,7,6,5)(7,5,7,7,5)(7,5,7,7,6)(7,5,7,7,7)(7,6,5,5,6)(7,6,5,5,7)(7,6,5,6,5)(7,6,5,6,6)(7,6,5,7,5)(7,6,5,7,7)(7,6,6,5,5)(7,6,6,5,6)(7,6,6,5,7)(7,6,6,6,5)(7,6,6,7,7)(7,6,7,5,5)(7,6,7,7,5)(7,6,7,7,6)(7,6,7,7,7)(7,7,5,5,5)(7,7,5,5,6)(7,7,5,5,7)(7,7,5,6,5)(7,7,5,6,6)(7,7,5,7,5)(7,7,5,7,7)(7,7,6,7,7)(7,7,7,5,5)(7,7,7,5,6)(7,7,7,5,7)(7,7,7,6,5)(7,7,7,6,6)(7,7,7,6,7)(7,7,7,7,5)(7,7,7,7,6)(7,7,7,7,7) </supports>
    </extension>
    <extension>
      <list> x[8] x[6..7] x[9] </list>
      <supports> (5,5,5,5)(5,5,6,6)(5,5,6,7)(5,5,7,5)(5,5,7,6)(5,5,7,7)(5,6,5,7)(5,6,6,5)(5,6,6,6)(5,6,6,7)(5,6,7,5)(5,6,7,6)(5,6,7,7)(5,7,5,6)(5,7,5,7)(5,7,6,5)(5,7,6,6)(5,7,6,7)(5,7,7,5)(5,7,7,6)(6,5,5,6)(6,5,5,7)(6,5,6,5)(6,5,6,6)(6,5,6,7)(6,5,7,5)(6,5,7,6)(6,5,7,7)(6,6,5,5)(6,6,5,6)(6,6,5,7)(6,6,6,5)(6,6,6,6)(6,6,6,7)(6,6,7,5)(6,6,7,6)(6,6,7,7)(6,7,5,5)(6,7,5,6)(6,7,5,7)(6,7,6,5)(6,7,6,6)(6,7,7,5)(6,7,7,6)(6,7,7,7)(7,5,5,5)(7,5,5,6)(7,5,5,7)(7,5,6,5)(7,5,6,6)(7,5,7,5)(7,5,7,6)(7,5,7,7)(7,6,5,5)(7,6,5,6)(7,6,5,7)(7,6,6,5)(7,6,6,6)(7,6,7,5)(7,6,7,7)(7,7,5,5)(7,7,5,6)(7,7,5,7)(7,7,7,5)(7,7,7,6)(7,7,7,7) </supports>
    </extension>
    <extension>
      <list> x[9] x[7..8] </list>
      <supports> (5,5,6)(5,5,7)(5,6,5)(5,6,6)(5,6,7)(5,7,5)(5,7,6)(5,7,7)(6,5,5)(6,5,6)(6,5,7)(6,6,5)(6,6,6)(6,6,7)(6,7,5)(6,7,6)(6,7,7)(7,5,5)(7,5,6)(7,5,7)(7,6,5)(7,6,6)(7,7,5)(7,7,7) </supports>
    </extension>
    <lex>
      <list> x[] </list>
      <list> x[1] x[0] x[2..9] </list>
      <operator> le </operator>
    </lex>
    <intension> imp(eq(x[0],5),ge(aux_gb[0],1)) </intension>
    <sum>
      <list> eq(x[1],7) eq(x[2],7) </list>
      <condition> (eq,aux_gb[0]) </condition>
    </sum>
    <intension> imp(eq(x[0],7),ge(aux_gb[1],1)) </intension>
    <sum>
      <list> eq(x[1],5) eq(x[2],5) </list>
      <condition> (eq,aux_gb[1]) </condition>
    </sum>
    <intension> imp(eq(x[1],5),ge(aux_gb[2],1)) </intension>
    <sum>
      <list> eq(x[0],7) eq(x[2],7) </list>
      <condition> (eq,aux_gb[2]) </condition>
    </sum>
    <intension> imp(eq(x[1],7),ge(aux_gb[3],1)) </intension>
    <sum>
      <list> eq(x[0],5) eq(x[2],5) </list>
      <condition> (eq,aux_gb[3]) </condition>
    </sum>
    <intension> imp(eq(x[2],5),ge(aux_gb[4],1)) </intension>
    <sum>
      <list> eq(x[0],7) eq(x[1],7) eq(x[3],7) eq(x[4],7) </list>
      <condition> (eq,aux_gb[4]) </condition>
    </sum>
    <intension> imp(eq(x[2],7),ge(aux_gb[5],1)) </intension>
    <sum>
      <list> eq(x[0],5) eq(x[1],5) eq(x[3],5) eq(x[4],5) </list>
      <condition> (eq,aux_gb[5]) </condition>
    </sum>
    <intension> imp(eq(x[3],5),ge(aux_gb[6],1)) </intension>
    <sum>
      <list> eq(x[2],7) eq(x[4],7) eq(x[5],7) </list>
      <condition> (eq,aux_gb[6]) </condition>
    </sum>
    <intension> imp(eq(x[3],7),ge(aux_gb[7],1)) </intension>
    <sum>
      <list> eq(x[2],5) eq(x[4],5) eq(x[5],5) </list>
      <condition> (eq,aux_gb[7]) </condition>
    </sum>
    <intension> imp(eq(x[4],5),ge(aux_gb[8],1)) </intension>
    <sum>
      <list> eq(x[2],7) eq(x[3],7) eq(x[5],7) eq(x[6],7) eq(x[7],7) </list>
      <condition> (eq,aux_gb[8]) </condition>
    </sum>
    <intension> imp(eq(x[4],7),ge(aux_gb[9],1)) </intension>
    <sum>
      <list> eq(x[2],5) eq(x[3],5) eq(x[5],5) eq(x[6],5) eq(x[7],5) </list>
      <condition> (eq,aux_gb[9]) </condition>
    </sum>
    <intension> imp(eq(x[5],5),ge(aux_gb[10],1)) </intension>
    <sum>
      <list> eq(x[3],7) eq(x[4],7) eq(x[6],7) </list>
      <condition> (eq,aux_gb[10]) </condition>
    </sum>
    <intension> imp(eq(x[5],7),ge(aux_gb[11],1)) </intension>
    <sum>
      <list> eq(x[3],5) eq(x[4],5) eq(x[6],5) </list>
      <condition> (eq,aux_gb[11]) </condition>
    </sum>
    <intension> imp(eq(x[6],5),ge(aux_gb[12],1)) </intension>
    <sum>
      <list> eq(x[4],7) eq(x[5],7) eq(x[7],7) eq(x[8],7) </list>
      <condition> (eq,aux_gb[12]) </condition>
    </sum>
    <intension> imp(eq(x[6],7),ge(aux_gb[13],1)) </intension>
    <sum>
      <list> eq(x[4],5) eq(x[5],5) eq(x[7],5) eq(x[8],5) </list>
      <condition> (eq,aux_gb[13]) </condition>
    </sum>
    <intension> imp(eq(x[7],5),ge(aux_gb[14],1)) </intension>
    <sum>
      <list> eq(x[4],7) eq(x[6],7) eq(x[8],7) eq(x[9],7) </list>
      <condition> (eq,aux_gb[14]) </condition>
    </sum>
    <intension> imp(eq(x[7],7),ge(aux_gb[15],1)) </intension>
    <sum>
      <list> eq(x[4],5) eq(x[6],5) eq(x[8],5) eq(x[9],5) </list>
      <condition> (eq,aux_gb[15]) </condition>
    </sum>
    <intension> imp(eq(x[8],5),ge(aux_gb[16],1)) </intension>
    <sum>
      <list> eq(x[6],7) eq(x[7],7) eq(x[9],7) </list>
      <condition> (eq,aux_gb[16]) </condition>
    </sum>
    <intension> imp(eq(x[8],7),ge(aux_gb[17],1)) </intension>
    <sum>
      <list> eq(x[6],5) eq(x[7],5) eq(x[9],5) </list>
      <condition> (eq,aux_gb[17]) </condition>
    </sum>
    <intension> imp(eq(x[9],5),ge(aux_gb[18],1)) </intension>
    <sum>
      <list> eq(x[7],7) eq(x[8],7) </list>
      <condition> (eq,aux_gb[18]) </condition>
    </sum>
    <intension> imp(eq(x[9],7),ge(aux_gb[19],1)) </intension>
    <sum>
      <list> eq(x[7],5) eq(x[8],5) </list>
      <condition> (eq,aux_gb[19]) </condition>
    </sum>
    <sum>
      <list> eq(x[0],5) eq(x[1],5) eq(x[2],5) eq(x[3],5) eq(x[4],5) eq(x[5],5) eq(x[6],5) eq(x[7],5) eq(x[8],5) eq(x[9],5) </list>
      <condition> (le,1) </condition>
    </sum>
    <sum>
      <list> eq(x[0],5) eq(x[1],5) eq(x[2],5) eq(x[3],5) eq(x[4],5) eq(x[0],7) eq(x[1],7) eq(x[2],7) eq(x[3],7) eq(x[4],7) </list>
      <coeffs> 1x5 -1x5 </coeffs>
      <condition> (le,0) </condition>
    </sum>
    <sum>
      <list> eq(x[0],7) eq(x[1],7) eq(x[2],7) eq(x[3],7) eq(x[4],7) eq(x[0],5) eq(x[1],5) eq(x[2],5) eq(x[3],5) eq(x[4],5) </list>
      <coeffs> 1x5 -1x5 </coeffs>
      <condition> (le,0) </condition>
    </sum>
    <sum>
      <list> eq(x[0],5) eq(x[1],5) eq(x[2],5) eq(x[3],5) eq(x[4],5) eq(x[0],7) eq(x[1],7) eq(x[2],7) eq(x[3],7) eq(x[4],7) </list>
      <coeffs> 1x5 -1x5 </coeffs>
      <condition> (le,0) </condition>
    </sum>
    <sum>
      <list> eq(x[0],7) eq(x[1],7) eq(x[2],7) eq(x[3],7) eq(x[4],7) eq(x[0],5) eq(x[1],5) eq(x[2],5) eq(x[3],5) eq(x[4],5) </list>
      <coeffs> 1x5 -1x5 </coeffs>
      <condition> (le,0) </condition>
    </sum>
    <sum>
      <list> eq(x[0],5) eq(x[1],5) eq(x[2],5) eq(x[3],5) eq(x[4],5) eq(x[5],5) eq(x[6],5) eq(x[7],5) eq(x[0],7) eq(x[1],7) eq(x[2],7) eq(x[3],7) eq(x[4],7) eq(x[5],7) eq(x[6],7) eq(x[7],7) </list>
      <coeffs> 1x8 -1x8 </coeffs>
      <condition> (le,0) </condition>
    </sum>
    <sum>
      <list> eq(x[0],7) eq(x[1],7) eq(x[2],7) eq(x[3],7) eq(x[4],7) eq(x[5],7) eq(x[6],7) eq(x[7],7) eq(x[0],5) eq(x[1],5) eq(x[2],5) eq(x[3],5) eq(x[4],5) eq(x[5],5) eq(x[6],5) eq(x[7],5) </list>
      <coeffs> 1x8 -1x8 </coeffs>
      <condition> (le,0) </condition>
    </sum>
    <sum>
      <list> eq(x[0],5) eq(x[1],5) eq(x[2],5) eq(x[3],5) eq(x[4],5) eq(x[5],5) eq(x[6],5) eq(x[7],5) eq(x[0],7) eq(x[1],7) eq(x[2],7) eq(x[3],7) eq(x[4],7) eq(x[5],7) eq(x[6],7) eq(x[7],7) </list>
      <coeffs> 1x8 -1x8 </coeffs>
      <condition> (le,0) </condition>
    </sum>
    <sum>
      <list> eq(x[0],7) eq(x[1],7) eq(x[2],7) eq(x[3],7) eq(x[4],7) eq(x[5],7) eq(x[6],7) eq(x[7],7) eq(x[0],5) eq(x[1],5) eq(x[2],5) eq(x[3],5) eq(x[4],5) eq(x[5],5) eq(x[6],5) eq(x[7],5) </list>
      <coeffs> 1x8 -1x8 </coeffs>
      <condition> (le,0) </condition>
    </sum>
    <sum>
      <list> eq(x[0],5) eq(x[1],5) eq(x[2],5) eq(x[3],5) eq(x[4],5) eq(x[5],5) eq(x[6],5) eq(x[7],5) eq(x[8],5) eq(x[9],5) eq(x[0],7) eq(x[1],7) eq(x[2],7) eq(x[3],7) eq(x[4],7) eq(x[5],7) eq(x[6],7) eq(x[7],7) eq(x[8],7) eq(x[9],7) </list>
      <coeffs> 1x10 -1x10 </coeffs>
      <condition> (le,0) </condition>
    </sum>
    <sum>
      <list> eq(x[0],7) eq(x[1],7) eq(x[2],7) eq(x[3],7) eq(x[4],7) eq(x[5],7) eq(x[6],7) eq(x[7],7) eq(x[8],7) eq(x[9],7) eq(x[0],5) eq(x[1],5) eq(x[2],5) eq(x[3],5) eq(x[4],5) eq(x[5],5) eq(x[6],5) eq(x[7],5) eq(x[8],5) eq(x[9],5) </list>
      <coeffs> 1x10 -1x10 </coeffs>
      <condition> (le,0) </condition>
    </sum>
    <sum>
      <list> eq(x[2],5) eq(x[3],5) eq(x[4],5) eq(x[5],5) eq(x[6],5) eq(x[7],5) eq(x[8],5) eq(x[2],7) eq(x[3],7) eq(x[4],7) eq(x[5],7) eq(x[6],7) eq(x[7],7) eq(x[8],7) </list>
      <coeffs> 1x7 -1x7 </coeffs>
      <condition> (le,0) </condition>
    </sum>
    <sum>
      <list> eq(x[2],7) eq(x[3],7) eq(x[4],7) eq(x[5],7) eq(x[6],7) eq(x[7],7) eq(x[8],7) eq(x[2],5) eq(x[3],5) eq(x[4],5) eq(x[5],5) eq(x[6],5) eq(x[7],5) eq(x[8],5) </list>
      <coeffs> 1x7 -1x7 </coeffs>
      <condition> (le,0) </condition>
    </sum>
    <sum>
      <list> eq(x[2],5) eq(x[3],5) eq(x[4],5) eq(x[5],5) eq(x[6],5) eq(x[7],5) eq(x[8],5) eq(x[9],5) eq(x[2],7) eq(x[3],7) eq(x[4],7) eq(x[5],7) eq(x[6],7) eq(x[7],7) eq(x[8],7) eq(x[9],7) </list>
      <coeffs> 1x8 -1x8 </coeffs>
      <condition> (le,0) </condition>
    </sum>
    <sum>
      <list> eq(x[2],7) eq(x[3],7) eq(x[4],7) eq(x[5],7) eq(x[6],7) eq(x[7],7) eq(x[8],7) eq(x[9],7) eq(x[2],5) eq(x[3],5) eq(x[4],5) eq(x[5],5) eq(x[6],5) eq(x[7],5) eq(x[8],5) eq(x[9],5) </list>
      <coeffs> 1x8 -1x8 </coeffs>
      <condition> (le,0) </condition>
    </sum>
    <sum>
      <list> eq(x[2],5) eq(x[3],5) eq(x[4],5) eq(x[5],5) eq(x[6],5) eq(x[7],5) eq(x[8],5) eq(x[9],5) eq(x[2],7) eq(x[3],7) eq(x[4],7) eq(x[5],7) eq(x[6],7) eq(x[7],7) eq(x[8],7) eq(x[9],7) </list>
      <coeffs> 1x8 -1x8 </coeffs>
      <condition> (le,0) </condition>
    </sum>
    <sum>
      <list> eq(x[2],7) eq(x[3],7) eq(x[4],7) eq(x[5],7) eq(x[6],7) eq(x[7],7) eq(x[8],7) eq(x[9],7) eq(x[2],5) eq(x[3],5) eq(x[4],5) eq(x[5],5) eq(x[6],5) eq(x[7],5) eq(x[8],5) eq(x[9],5) </list>
      <coeffs> 1x8 -1x8 </coeffs>
      <condition> (le,0) </condition>
    </sum>
    <sum>
      <list> eq(x[4],5) eq(x[5],5) eq(x[6],5) eq(x[7],5) eq(x[8],5) eq(x[9],5) eq(x[4],7) eq(x[5],7) eq(x[6],7) eq(x[7],7) eq(x[8],7) eq(x[9],7) </list>
      <coeffs> 1x6 -1x6 </coeffs>
      <condition> (le,0) </condition>
    </sum>
    <sum>
      <list> eq(x[4],7) eq(x[5],7) eq(x[6],7) eq(x[7],7) eq(x[8],7) eq(x[9],7) eq(x[4],5) eq(x[5],5) eq(x[6],5) eq(x[7],5) eq(x[8],5) eq(x[9],5) </list>
      <coeffs> 1x6 -1x6 </coeffs>
      <condition> (le,0) </condition>
    </sum>
    <sum>
      <list> eq(x[4],5) eq(x[6],5) eq(x[7],5) eq(x[8],5) eq(x[9],5) eq(x[4],7) eq(x[6],7) eq(x[7],7) eq(x[8],7) eq(x[9],7) </list>
      <coeffs> 1x5 -1x5 </coeffs>
      <condition> (le,0) </condition>
    </sum>
    <sum>
      <list> eq(x[4],7) eq(x[6],7) eq(x[7],7) eq(x[8],7) eq(x[9],7) eq(x[4],5) eq(x[6],5) eq(x[7],5) eq(x[8],5) eq(x[9],5) </list>
      <coeffs> 1x5 -1x5 </coeffs>
      <condition> (le,0) </condition>
    </sum>
    <extension>
      <list> x[0..2] </list>
      <conflicts> (5,5,5)(7,7,7) </conflicts>
    </extension>
  </constraints>
</instance>
